127 300 94 75 97 65 76 86 95 84 99 64 97 52 55 94 87 54 69 100 67 61 57 63 98 77 88 98 70 67 95 60 51 88 86 98 77 61 57 71 95 55 60 92 57 90 59 69 94 79 93 60 64 75 99 87 51 86 84 71 53 52 82 79 65 67 76 92 78 57 88 98 87 72 63 95 61 72 88 79 75 80 64 90 54 62 76 55 98 84 51 50 61 83 79 76 100 79 67 51 86 54 99 98 76 61 92 61 58 53 91 83 83 54 72 62 66 72 92 88 81 93 89 92 75 92 67 99 96 